NAME          DCAP_2_3_3_200_SS195
ROWS
 N  OBJ
 L  CON1
 L  CON2
 L  CON3
 L  CON4
 L  CON5
 L  CON6
 L  CON7
 L  CON8
 L  CON9
 L  CON10
 L  CON11
 L  CON12
 E  CON13
 E  CON14
 E  CON15
 E  CON16
 E  CON17
 E  CON18
 E  CON19
 E  CON20
 E  CON21
COLUMNS
    x[1,1]    OBJ       6.180167      CON1      1.000000    
    x[1,1]    CON7      -1.000000     CON8      -1.000000   
    x[1,1]    CON9      -1.000000   
    x[1,2]    OBJ       6.563535      CON2      1.000000    
    x[1,2]    CON8      -1.000000     CON9      -1.000000   
    x[1,3]    OBJ       7.443064      CON3      1.000000    
    x[1,3]    CON9      -1.000000   
    x[2,1]    OBJ       6.732585      CON4      1.000000    
    x[2,1]    CON10     -1.000000     CON11     -1.000000   
    x[2,1]    CON12     -1.000000   
    x[2,2]    OBJ       5.039546      CON5      1.000000    
    x[2,2]    CON11     -1.000000     CON12     -1.000000   
    x[2,3]    OBJ       6.054841      CON6      1.000000    
    x[2,3]    CON12     -1.000000   
    MARKER    'MARKER'                'INTORG'
    u[1,1]    OBJ       48.076654     CON1      -1.000000   
    u[1,2]    OBJ       20.066487     CON2      -1.000000   
    u[1,3]    OBJ       32.230043     CON3      -1.000000   
    u[2,1]    OBJ       49.996186     CON4      -1.000000   
    u[2,2]    OBJ       49.466655     CON5      -1.000000   
    u[2,3]    OBJ       27.484319     CON6      -1.000000   
    y[1,1,1]  OBJ       9.751371      CON7      0.578561    
    y[1,1,1]  CON13     1.000000    
    y[1,1,2]  OBJ       8.445627      CON8      0.525676    
    y[1,1,2]  CON14     1.000000    
    y[1,1,3]  OBJ       5.382671      CON9      0.603683    
    y[1,1,3]  CON15     1.000000    
    y[1,2,1]  OBJ       6.194498      CON7      1.390393    
    y[1,2,1]  CON16     1.000000    
    y[1,2,2]  OBJ       9.613749      CON8      1.167042    
    y[1,2,2]  CON17     1.000000    
    y[1,2,3]  OBJ       8.711334      CON9      0.973468    
    y[1,2,3]  CON18     1.000000    
    y[1,3,1]  OBJ       9.572348      CON7      0.807865    
    y[1,3,1]  CON19     1.000000    
    y[1,3,2]  OBJ       9.921123      CON8      0.543678    
    y[1,3,2]  CON20     1.000000    
    y[1,3,3]  OBJ       5.036691      CON9      0.653382    
    y[1,3,3]  CON21     1.000000    
    y[2,1,1]  OBJ       6.482330      CON10     0.578561    
    y[2,1,1]  CON13     1.000000    
    y[2,1,2]  OBJ       8.110285      CON11     0.525676    
    y[2,1,2]  CON14     1.000000    
    y[2,1,3]  OBJ       8.823533      CON12     0.603683    
    y[2,1,3]  CON15     1.000000    
    y[2,2,1]  OBJ       5.320835      CON10     1.390393    
    y[2,2,1]  CON16     1.000000    
    y[2,2,2]  OBJ       9.867680      CON11     1.167042    
    y[2,2,2]  CON17     1.000000    
    y[2,2,3]  OBJ       6.311665      CON12     0.973468    
    y[2,2,3]  CON18     1.000000    
    y[2,3,1]  OBJ       6.932509      CON10     0.807865    
    y[2,3,1]  CON19     1.000000    
    y[2,3,2]  OBJ       5.146759      CON11     0.543678    
    y[2,3,2]  CON20     1.000000    
    y[2,3,3]  OBJ       9.503909      CON12     0.653382    
    y[2,3,3]  CON21     1.000000    
    z[1,1]    OBJ       563.192928    CON13     1.000000    
    z[1,2]    OBJ       945.915770    CON14     1.000000    
    z[1,3]    OBJ       590.813969    CON15     1.000000    
    z[2,1]    OBJ       612.321496    CON16     1.000000    
    z[2,2]    OBJ       882.595730    CON17     1.000000    
    z[2,3]    OBJ       726.323135    CON18     1.000000    
    z[3,1]    OBJ       534.546729    CON19     1.000000    
    z[3,2]    OBJ       766.701339    CON20     1.000000    
    z[3,3]    OBJ       606.858491    CON21     1.000000    
    MARKER    'MARKER'                 'INTEND'
RHS
    RHS       CON1      -0.000000     CON2      -0.000000   
    RHS       CON3      -0.000000     CON4      -0.000000   
    RHS       CON5      -0.000000     CON6      -0.000000   
    RHS       CON7      -0.000000     CON8      -0.000000   
    RHS       CON9      -0.000000     CON10     -0.000000   
    RHS       CON11     -0.000000     CON12     -0.000000   
    RHS       CON13     1.000000      CON14     1.000000    
    RHS       CON15     1.000000      CON16     1.000000    
    RHS       CON17     1.000000      CON18     1.000000    
    RHS       CON19     1.000000      CON20     1.000000    
    RHS       CON21     1.000000    
BOUNDS
 BV BOUND     u[1,1]  
 BV BOUND     u[1,2]  
 BV BOUND     u[1,3]  
 BV BOUND     u[2,1]  
 BV BOUND     u[2,2]  
 BV BOUND     u[2,3]  
 BV BOUND     y[1,1,1]
 BV BOUND     y[1,1,2]
 BV BOUND     y[1,1,3]
 BV BOUND     y[1,2,1]
 BV BOUND     y[1,2,2]
 BV BOUND     y[1,2,3]
 BV BOUND     y[1,3,1]
 BV BOUND     y[1,3,2]
 BV BOUND     y[1,3,3]
 BV BOUND     y[2,1,1]
 BV BOUND     y[2,1,2]
 BV BOUND     y[2,1,3]
 BV BOUND     y[2,2,1]
 BV BOUND     y[2,2,2]
 BV BOUND     y[2,2,3]
 BV BOUND     y[2,3,1]
 BV BOUND     y[2,3,2]
 BV BOUND     y[2,3,3]
 BV BOUND     z[1,1]  
 BV BOUND     z[1,2]  
 BV BOUND     z[1,3]  
 BV BOUND     z[2,1]  
 BV BOUND     z[2,2]  
 BV BOUND     z[2,3]  
 BV BOUND     z[3,1]  
 BV BOUND     z[3,2]  
 BV BOUND     z[3,3]  
ENDATA
